[64, 73, 77, 63, 79, 62, 60, 60, 65, 62, 223, 235, 227, 232, 248, 222, 217, 220, 230, 232, 1155, 852, 857, 897, 900, 920, 853, 887, 889, 899, 3320, 3633, 3696, 3327, 3465, 3495, 3374, 3389, 3323, 3372, 13200, 13622, 13266, 14903, 14102, 14336, 14861, 13996, 14549, 14741]
